Mn20 F40                                
   1.00000000000000     
     4.8699998856000004    0.0000000000000000    6.6199998856000004
     0.0000000000000000    9.7399997712000008    3.3099999428000002
    -9.7399997712000008    0.0000000000000000    3.3099999428000002
   Mn   F 
    20    40
Direct
  0.2000000000000028 -0.0000000000000000  0.6000000000000014
  0.6000000000000014 -0.0000000000000000  0.7999999999999972
  0.0000000000000000  0.5000000000000000  0.5000000000000000
  0.3999999999999986  0.5000000000000000  0.7000000000000028
  0.7999999999999972  0.5000000000000000  0.8999999999999986
  0.0000000000000000 -0.0000000000000000 -0.0000000000000000
  0.3999999999999986 -0.0000000000000000  0.2000000000000028
  0.7999999999999972 -0.0000000000000000  0.3999999999999986
  0.2000000000000028  0.5000000000000000  0.1000000000000014
  0.6000000000000014  0.5000000000000000  0.2999999999999972
  0.3999999999999986  0.2500000000000000  0.4500000000000028
  0.7999999999999972  0.2500000000000000  0.6499999999999986
  0.2000000000000028  0.7500000000000000  0.3500000000000014
  0.6000000000000014  0.7500000000000000  0.5499999999999972
  0.0000000000000000  0.7500000000000000  0.7500000000000000
  0.2000000000000028  0.2500000000000000  0.8500000000000014
  0.6000000000000014  0.2500000000000000  0.0499999999999972
  0.0000000000000000  0.2500000000000000  0.2500000000000000
  0.3999999999999986  0.7500000000000000  0.9500000000000028
  0.7999999999999972  0.7500000000000000  0.1499999999999986
  0.2000315885030974  0.3469478250285746  0.2532089460917393
  0.6000315885030960  0.3469478250285746  0.4532089460917351
  0.0000315885030945  0.8469478250285747  0.1532089460917379
  0.4000315885030931  0.8469478250285747  0.3532089460917407
  0.8000315885030918  0.8469478250285747  0.5532089460917364
  0.0000315885030945  0.3469478250285746  0.6532089460917379
  0.4000315885030931  0.3469478250285746  0.8532089460917336
  0.8000315885030918  0.3469478250285746  0.0532089460917365
  0.2000315885030974  0.8469478250285747  0.7532089460917393
  0.6000315885030960  0.8469478250285747  0.9532089460917350
  0.2776918677692130  0.4028827850488534  0.5419468153491789
  0.6776918677692115  0.4028827850488534  0.7419468153491746
  0.0776918677692101  0.9028827850488534  0.4419468153491775
  0.4776918677692087  0.9028827850488534  0.6419468153491803
  0.8776918677692073  0.9028827850488534  0.8419468153491760
  0.0776918677692101  0.4028827850488534  0.9419468153491775
  0.4776918677692087  0.4028827850488534  0.1419468153491803
  0.8776918677692073  0.4028827850488534  0.3419468153491760
  0.2776918677692130  0.9028827850488534  0.0419468153491789
  0.6776918677692115  0.9028827850488534  0.2419468153491746
  0.1999684114969083  0.1530521749714253  0.4467910539082635
  0.5999684114969068  0.1530521749714253  0.6467910539082664
 -0.0000315885030945  0.6530521749714253  0.3467910539082621
  0.3999684114969040  0.6530521749714253  0.5467910539082650
  0.7999684114969026  0.6530521749714253  0.7467910539082607
 -0.0000315885030945  0.1530521749714253  0.8467910539082621
  0.3999684114969040  0.1530521749714253  0.0467910539082649
  0.7999684114969026  0.1530521749714253  0.2467910539082607
  0.1999684114969083  0.6530521749714253  0.9467910539082636
  0.5999684114969068  0.6530521749714253  0.1467910539082664
  0.5223081322307913  0.0971172149511466  0.3580531846508197
  0.9223081322307899  0.0971172149511466  0.5580531846508225
  0.3223081322307885  0.5971172149511466  0.2580531846508254
  0.7223081322307870  0.5971172149511466  0.4580531846508211
  0.1223081322307928  0.5971172149511466  0.6580531846508240
  0.3223081322307885  0.0971172149511466  0.7580531846508254
  0.7223081322307870  0.0971172149511466  0.9580531846508211
  0.1223081322307928  0.0971172149511466  0.1580531846508239
  0.5223081322307913  0.5971172149511466  0.8580531846508197
  0.9223081322307899  0.5971172149511466  0.0580531846508225
 
  0.00000000E+00  0.00000000E+00  0.00000000E+00
  0.00000000E+00  0.00000000E+00  0.00000000E+00
  0.00000000E+00  0.00000000E+00  0.00000000E+00
  0.00000000E+00  0.00000000E+00  0.00000000E+00
  0.00000000E+00  0.00000000E+00  0.00000000E+00
  0.00000000E+00  0.00000000E+00  0.00000000E+00
  0.00000000E+00  0.00000000E+00  0.00000000E+00
  0.00000000E+00  0.00000000E+00  0.00000000E+00
  0.00000000E+00  0.00000000E+00  0.00000000E+00
  0.00000000E+00  0.00000000E+00  0.00000000E+00
  0.00000000E+00  0.00000000E+00  0.00000000E+00
  0.00000000E+00  0.00000000E+00  0.00000000E+00
  0.00000000E+00  0.00000000E+00  0.00000000E+00
  0.00000000E+00  0.00000000E+00  0.00000000E+00
  0.00000000E+00  0.00000000E+00  0.00000000E+00
  0.00000000E+00  0.00000000E+00  0.00000000E+00
  0.00000000E+00  0.00000000E+00  0.00000000E+00
  0.00000000E+00  0.00000000E+00  0.00000000E+00
  0.00000000E+00  0.00000000E+00  0.00000000E+00
  0.00000000E+00  0.00000000E+00  0.00000000E+00
  0.00000000E+00  0.00000000E+00  0.00000000E+00
  0.00000000E+00  0.00000000E+00  0.00000000E+00
  0.00000000E+00  0.00000000E+00  0.00000000E+00
  0.00000000E+00  0.00000000E+00  0.00000000E+00
  0.00000000E+00  0.00000000E+00  0.00000000E+00
  0.00000000E+00  0.00000000E+00  0.00000000E+00
  0.00000000E+00  0.00000000E+00  0.00000000E+00
  0.00000000E+00  0.00000000E+00  0.00000000E+00
  0.00000000E+00  0.00000000E+00  0.00000000E+00
  0.00000000E+00  0.00000000E+00  0.00000000E+00
  0.00000000E+00  0.00000000E+00  0.00000000E+00
  0.00000000E+00  0.00000000E+00  0.00000000E+00
  0.00000000E+00  0.00000000E+00  0.00000000E+00
  0.00000000E+00  0.00000000E+00  0.00000000E+00
  0.00000000E+00  0.00000000E+00  0.00000000E+00
  0.00000000E+00  0.00000000E+00  0.00000000E+00
  0.00000000E+00  0.00000000E+00  0.00000000E+00
  0.00000000E+00  0.00000000E+00  0.00000000E+00
  0.00000000E+00  0.00000000E+00  0.00000000E+00
  0.00000000E+00  0.00000000E+00  0.00000000E+00
  0.00000000E+00  0.00000000E+00  0.00000000E+00
  0.00000000E+00  0.00000000E+00  0.00000000E+00
  0.00000000E+00  0.00000000E+00  0.00000000E+00
  0.00000000E+00  0.00000000E+00  0.00000000E+00
  0.00000000E+00  0.00000000E+00  0.00000000E+00
  0.00000000E+00  0.00000000E+00  0.00000000E+00
  0.00000000E+00  0.00000000E+00  0.00000000E+00
  0.00000000E+00  0.00000000E+00  0.00000000E+00
  0.00000000E+00  0.00000000E+00  0.00000000E+00
  0.00000000E+00  0.00000000E+00  0.00000000E+00
  0.00000000E+00  0.00000000E+00  0.00000000E+00
  0.00000000E+00  0.00000000E+00  0.00000000E+00
  0.00000000E+00  0.00000000E+00  0.00000000E+00
  0.00000000E+00  0.00000000E+00  0.00000000E+00
  0.00000000E+00  0.00000000E+00  0.00000000E+00
  0.00000000E+00  0.00000000E+00  0.00000000E+00
  0.00000000E+00  0.00000000E+00  0.00000000E+00
  0.00000000E+00  0.00000000E+00  0.00000000E+00
  0.00000000E+00  0.00000000E+00  0.00000000E+00
  0.00000000E+00  0.00000000E+00  0.00000000E+00