Mn28 F56                                
   1.00000000000000     
     9.7399997712000008   -4.8699998856000004    0.0000000000000000
    -4.8699998856000004    0.0000000000000000   -9.9299998283999997
     4.8699998856000004    9.7399997712000008    3.3099999428000002
   Mn   F 
    28    56
Direct
     0.2857142857142847    0.7142857142857153    0.1428571428571459
     0.1428571428571459    0.3571428571428541    0.0714285714285694
     0.0000000000000000    0.0000000000000000    0.0000000000000000
     0.1428571428571459    0.8571428571428541    0.5714285714285694
     0.0000000000000000    0.5000000000000000    0.5000000000000000
     0.7142857142857153    0.7857142857142847    0.3571428571428541
     0.5714285714285694    0.4285714285714306    0.2857142857142847
     0.4285714285714306    0.0714285714285694    0.2142857142857153
     0.5714285714285694    0.9285714285714306    0.7857142857142847
     0.4285714285714306    0.5714285714285694    0.7142857142857153
     0.2857142857142847    0.2142857142857153    0.6428571428571459
     0.8571428571428541    0.1428571428571459    0.4285714285714306
     0.8571428571428541    0.6428571428571459    0.9285714285714306
     0.7142857142857153    0.2857142857142847    0.8571428571428541
     0.3571428571428541    0.6428571428571459    0.4285714285714306
     0.2142857142857153    0.2857142857142847    0.3571428571428541
     0.0714285714285694    0.9285714285714306    0.2857142857142847
     0.2142857142857153    0.7857142857142847    0.8571428571428541
     0.0714285714285694    0.4285714285714306    0.7857142857142847
     0.7857142857142847    0.7142857142857153    0.6428571428571459
     0.6428571428571459    0.3571428571428541    0.5714285714285694
     0.5000000000000000    0.0000000000000000    0.5000000000000000
     0.6428571428571459    0.8571428571428541    0.0714285714285694
     0.5000000000000000    0.5000000000000000    0.0000000000000000
     0.3571428571428541    0.1428571428571459    0.9285714285714306
     0.9285714285714306    0.0714285714285694    0.7142857142857153
     0.9285714285714306    0.5714285714285694    0.2142857142857153
     0.7857142857142847    0.2142857142857153    0.1428571428571459
     0.4844729490255943    0.8633547117691904    0.5900641353075784
     0.3416158061684484    0.5062118546263363    0.5186355638790090
     0.1987586633113096    0.1490689974834822    0.4472069924504396
     0.3416158061684484    0.0062118546263363    0.0186355638790090
     0.1987586633113096    0.6490689974834822    0.9472069924504396
     0.9130443775970178    0.9347832831977669    0.8043498495932937
     0.7701872347398790    0.5776404260549057    0.7329212781647243
     0.6273300918827331    0.2204975689120516    0.6614927067361549
     0.7701872347398790    0.0776404260549057    0.2329212781647243
     0.6273300918827331    0.7204975689120516    0.1614927067361549
     0.4844729490255943    0.3633547117691904    0.0900641353075784
     0.0559015204541637    0.2919261403406210    0.8757784210218702
     0.0559015204541637    0.7919261403406210    0.3757784210218702
     0.9130443775970178    0.4347832831977669    0.3043498495932937
     0.1832316123368969    0.6645960484578879    0.4937881453736637
     0.0403744694797581    0.3074531913150338    0.4223595739450943
     0.8975173266226122    0.9503103341721726    0.3509310025165178
     0.0403744694797581    0.8074531913150338    0.9223595739450943
     0.8975173266226122    0.4503103341721726    0.8509310025165178
     0.6118030409083275    0.7360246198864573    0.7080738596593790
     0.4689458980511816    0.3788817627436032    0.6366452882308096
     0.3260887551940428    0.0217389056007420    0.5652167168022331
     0.4689458980511816    0.8788817627436032    0.1366452882308096
     0.3260887551940428    0.5217389056007420    0.0652167168022331
     0.1832316123368969    0.1645960484578879    0.9937881453736637
     0.7546601837654663    0.0931674770293185    0.7795024310879484
     0.7546601837654663    0.5931674770293185    0.2795024310879484
     0.6118030409083275    0.2360246198864573    0.2080738596593790
     0.3726699081172669    0.7795024310879484    0.3385072932638451
     0.2298127652601210    0.4223595739450943    0.2670787218352757
     0.0869556224029822    0.0652167168022331    0.1956501504067063
     0.2298127652601210    0.9223595739450943    0.7670787218352757
     0.0869556224029822    0.5652167168022331    0.6956501504067063
     0.8012413366886975    0.8509310025165178    0.5527930075495604
     0.6583841938315516    0.4937881453736637    0.4813644361209910
     0.5155270509744057    0.1366452882308096    0.4099358646924216
     0.6583841938315516    0.9937881453736637    0.9813644361209910
     0.5155270509744057    0.6366452882308096    0.9099358646924216
     0.3726699081172669    0.2795024310879484    0.8385072932638451
     0.9440984795458363    0.2080738596593790    0.6242215789781298
     0.9440984795458363    0.7080738596593790    0.1242215789781298
     0.8012413366886975    0.3509310025165178    0.0527930075495604
     0.5310541019488184    0.6211182372563968    0.3633547117691904
     0.3881969590916725    0.2639753801135427    0.2919261403406210
     0.2453398162345337    0.9068325229706815    0.2204975689120516
     0.3881969590916725    0.7639753801135427    0.7919261403406210
     0.2453398162345337    0.4068325229706815    0.7204975689120516
     0.9596255305202419    0.6925468086849662    0.5776404260549057
     0.8167683876631031    0.3354039515421121    0.5062118546263363
     0.6739112448059572    0.9782610943992580    0.4347832831977669
     0.8167683876631031    0.8354039515421121    0.0062118546263363
     0.6739112448059572    0.4782610943992580    0.9347832831977669
     0.5310541019488184    0.1211182372563968    0.8633547117691904
     0.1024826733773878    0.0496896658278274    0.6490689974834822
     0.1024826733773878    0.5496896658278274    0.1490689974834822
     0.9596255305202419    0.1925468086849662    0.0776404260549057
 
  0.00000000E+00  0.00000000E+00  0.00000000E+00
  0.00000000E+00  0.00000000E+00  0.00000000E+00
  0.00000000E+00  0.00000000E+00  0.00000000E+00
  0.00000000E+00  0.00000000E+00  0.00000000E+00
  0.00000000E+00  0.00000000E+00  0.00000000E+00
  0.00000000E+00  0.00000000E+00  0.00000000E+00
  0.00000000E+00  0.00000000E+00  0.00000000E+00
  0.00000000E+00  0.00000000E+00  0.00000000E+00
  0.00000000E+00  0.00000000E+00  0.00000000E+00
  0.00000000E+00  0.00000000E+00  0.00000000E+00
  0.00000000E+00  0.00000000E+00  0.00000000E+00
  0.00000000E+00  0.00000000E+00  0.00000000E+00
  0.00000000E+00  0.00000000E+00  0.00000000E+00
  0.00000000E+00  0.00000000E+00  0.00000000E+00
  0.00000000E+00  0.00000000E+00  0.00000000E+00
  0.00000000E+00  0.00000000E+00  0.00000000E+00
  0.00000000E+00  0.00000000E+00  0.00000000E+00
  0.00000000E+00  0.00000000E+00  0.00000000E+00
  0.00000000E+00  0.00000000E+00  0.00000000E+00
  0.00000000E+00  0.00000000E+00  0.00000000E+00
  0.00000000E+00  0.00000000E+00  0.00000000E+00
  0.00000000E+00  0.00000000E+00  0.00000000E+00
  0.00000000E+00  0.00000000E+00  0.00000000E+00
  0.00000000E+00  0.00000000E+00  0.00000000E+00
  0.00000000E+00  0.00000000E+00  0.00000000E+00
  0.00000000E+00  0.00000000E+00  0.00000000E+00
  0.00000000E+00  0.00000000E+00  0.00000000E+00
  0.00000000E+00  0.00000000E+00  0.00000000E+00
  0.00000000E+00  0.00000000E+00  0.00000000E+00
  0.00000000E+00  0.00000000E+00  0.00000000E+00
  0.00000000E+00  0.00000000E+00  0.00000000E+00
  0.00000000E+00  0.00000000E+00  0.00000000E+00
  0.00000000E+00  0.00000000E+00  0.00000000E+00
  0.00000000E+00  0.00000000E+00  0.00000000E+00
  0.00000000E+00  0.00000000E+00  0.00000000E+00
  0.00000000E+00  0.00000000E+00  0.00000000E+00
  0.00000000E+00  0.00000000E+00  0.00000000E+00
  0.00000000E+00  0.00000000E+00  0.00000000E+00
  0.00000000E+00  0.00000000E+00  0.00000000E+00
  0.00000000E+00  0.00000000E+00  0.00000000E+00
  0.00000000E+00  0.00000000E+00  0.00000000E+00
  0.00000000E+00  0.00000000E+00  0.00000000E+00
  0.00000000E+00  0.00000000E+00  0.00000000E+00
  0.00000000E+00  0.00000000E+00  0.00000000E+00
  0.00000000E+00  0.00000000E+00  0.00000000E+00
  0.00000000E+00  0.00000000E+00  0.00000000E+00
  0.00000000E+00  0.00000000E+00  0.00000000E+00
  0.00000000E+00  0.00000000E+00  0.00000000E+00
  0.00000000E+00  0.00000000E+00  0.00000000E+00
  0.00000000E+00  0.00000000E+00  0.00000000E+00
  0.00000000E+00  0.00000000E+00  0.00000000E+00
  0.00000000E+00  0.00000000E+00  0.00000000E+00
  0.00000000E+00  0.00000000E+00  0.00000000E+00
  0.00000000E+00  0.00000000E+00  0.00000000E+00
  0.00000000E+00  0.00000000E+00  0.00000000E+00
  0.00000000E+00  0.00000000E+00  0.00000000E+00
  0.00000000E+00  0.00000000E+00  0.00000000E+00
  0.00000000E+00  0.00000000E+00  0.00000000E+00
  0.00000000E+00  0.00000000E+00  0.00000000E+00
  0.00000000E+00  0.00000000E+00  0.00000000E+00
  0.00000000E+00  0.00000000E+00  0.00000000E+00
  0.00000000E+00  0.00000000E+00  0.00000000E+00
  0.00000000E+00  0.00000000E+00  0.00000000E+00
  0.00000000E+00  0.00000000E+00  0.00000000E+00
  0.00000000E+00  0.00000000E+00  0.00000000E+00
  0.00000000E+00  0.00000000E+00  0.00000000E+00
  0.00000000E+00  0.00000000E+00  0.00000000E+00
  0.00000000E+00  0.00000000E+00  0.00000000E+00
  0.00000000E+00  0.00000000E+00  0.00000000E+00
  0.00000000E+00  0.00000000E+00  0.00000000E+00
  0.00000000E+00  0.00000000E+00  0.00000000E+00
  0.00000000E+00  0.00000000E+00  0.00000000E+00
  0.00000000E+00  0.00000000E+00  0.00000000E+00
  0.00000000E+00  0.00000000E+00  0.00000000E+00
  0.00000000E+00  0.00000000E+00  0.00000000E+00
  0.00000000E+00  0.00000000E+00  0.00000000E+00
  0.00000000E+00  0.00000000E+00  0.00000000E+00
  0.00000000E+00  0.00000000E+00  0.00000000E+00
  0.00000000E+00  0.00000000E+00  0.00000000E+00
  0.00000000E+00  0.00000000E+00  0.00000000E+00
  0.00000000E+00  0.00000000E+00  0.00000000E+00
  0.00000000E+00  0.00000000E+00  0.00000000E+00
  0.00000000E+00  0.00000000E+00  0.00000000E+00
  0.00000000E+00  0.00000000E+00  0.00000000E+00